419
1 0 5 359 1 358 1 375 1 374 1 373 1
2 0 5 206 1 259 1 278 1 202 1 150 1
3 0 5 171 1 97 1 224 1 211 1 313 1
4 0 5 277 1 212 1 307 1 124 1 47 1
5 0 5 271 1 218 1 42 1 149 1 309 1
6 0 5 155 1 316 1 242 1 68 1 333 1
7 0 5 69 1 139 1 178 1 93 1 64 1
8 0 5 39 1 194 1 258 1 291 1 263 1
9 0 5 323 1 121 1 174 1 78 1 265 1
10 0 5 241 1 92 1 19 1 302 1 36 1
11 0 5 167 1 177 1 18 1 169 1 331 1
12 0 5 269 1 27 1 198 1 41 1 115 1
13 0 5 231 1 114 1 256 1 209 1 75 1
14 0 5 272 1 129 1 63 1 318 1 158 1
15 0 5 104 1 225 1 57 1 185 1 208 1
16 0 5 30 1 70 1 59 1 181 1 41 1
17 0 5 260 1 64 1 301 1 139 1 24 1
18 0 5 57 1 297 1 11 1 167 1 95 1
19 0 5 36 1 302 1 110 1 280 1 10 1
20 0 5 81 1 316 1 166 1 6 1 143 1
21 0 5 144 1 284 1 256 1 245 1 25 1
22 0 5 98 1 182 1 43 1 24 1 296 1
23 0 5 160 1 126 1 249 1 213 1 237 1
24 0 5 273 1 301 1 266 1 37 1 98 1
25 0 5 245 1 130 1 21 1 126 1 256 1
26 0 5 193 1 267 1 48 1 74 1 230 1
27 0 5 12 1 115 1 269 1 44 1 312 1
28 0 5 197 1 105 1 153 1 90 1 49 1
29 0 5 172 1 138 1 330 1 132 1 328 1
30 0 5 181 1 16 1 59 1 312 1 41 1
31 0 5 38 1 116 1 191 1 334 1 217 1
32 0 5 303 1 209 1 228 1 114 1 256 1
33 0 5 214 1 332 1 140 1 305 1 35 1
34 0 5 230 1 64 1 193 1 283 1 222 1
35 0 5 55 1 248 1 94 1 234 1 33 1
36 0 5 19 1 110 1 280 1 240 1 79 1
37 0 5 273 1 98 1 244 1 267 1 24 1
38 0 5 31 1 334 1 263 1 191 1 116 1
39 0 5 8 1 258 1 263 1 194 1 291 1
40 0 5 261 1 159 1 197 1 151 1 311 1
41 0 5 269 1 115 1 30 1 166 1 16 1
42 0 5 46 1 5 1 218 1 271 1 309 1
43 0 5 296 1 266 1 22 1 273 1 24 1
44 0 5 286 1 312 1 128 1 198 1 133 1
45 0 5 116 1 216 1 217 1 191 1 31 1
46 0 5 42 1 281 1 325 1 61 1 309 1
47 0 5 217 1 307 1 4 1 51 1 277 1
48 0 5 267 1 26 1 305 1 74 1 230 1
49 0 5 310 1 197 1 85 1 236 1 28 1
50 0 5 87 1 105 1 152 1 153 1 274 1
51 0 5 174 1 212 1 307 1 293 1 102 1
52 0 5 106 1 256 1 209 1 203 1 120 1
53 0 5 107 1 175 1 122 1 137 1 176 1
54 0 5 176 1 107 1 328 1 235 1 183 1
55 0 5 35 1 226 1 214 1 317 1 94 1
56 0 5 103 1 331 1 315 1 77 1 88 1
57 0 5 18 1 95 1 331 1 15 1 225 1
58 0 5 83 1 279 1 188 1 288 1 149 1
59 0 5 181 1 30 1 210 1 16 1 153 1
60 0 5 289 1 101 1 71 1 178 1 186 1
61 0 5 309 1 325 1 46 1 42 1 281 1
62 0 5 282 1 146 1 105 1 50 1 276 1
63 0 5 240 1 302 1 14 1 110 1 36 1
64 0 5 76 1 139 1 34 1 150 1 193 1
65 0 5 252 1 313 1 224 1 73 1 285 1
66 0 5 196 1 173 1 317 1 295 1 226 1
67 0 5 199 1 84 1 232 1 78 1 9 1
68 0 5 333 1 255 1 6 1 143 1 316 1
69 0 5 7 1 93 1 73 1 139 1 178 1
70 0 5 16 1 166 1 281 1 30 1 181 1
71 0 5 157 1 101 1 289 1 60 1 203 1
72 0 5 111 1 162 1 284 1 96 1 249 1
73 0 5 327 1 219 1 69 1 290 1 65 1
74 0 5 305 1 298 1 332 1 222 1 283 1
75 0 5 96 1 231 1 114 1 127 1 13 1
76 0 5 150 1 64 1 193 1 139 1 278 1
77 0 5 331 1 97 1 131 1 3 1 177 1
78 0 5 314 1 262 1 9 1 84 1 232 1
79 0 5 280 1 149 1 110 1 188 1 240 1
80 0 5 175 1 156 1 253 1 53 1 145 1
81 0 5 20 1 166 1 147 1 304 1 70 1
82 0 5 130 1 160 1 186 1 157 1 126 1
83 0 5 58 1 149 1 188 1 271 1 218 1
84 0 5 67 1 185 1 262 1 232 1 78 1
85 0 5 236 1 310 1 49 1 161 1 151 1
86 0 5 191 1 216 1 220 1 299 1 258 1
87 0 5 50 1 180 1 274 1 152 1 153 1
88 0 5 103 1 125 1 77 1 131 1 97 1
89 0 5 268 1 311 1 261 1 253 1 135 1
90 0 5 159 1 246 1 28 1 197 1 40 1
91 0 5 128 1 265 1 198 1 242 1 44 1
92 0 5 10 1 241 1 288 1 237 1 302 1
93 0 5 69 1 178 1 139 1 7 1 129 1
94 0 5 298 1 35 1 214 1 55 1 201 1
95 0 5 57 1 167 1 18 1 297 1 326 1
96 0 5 75 1 284 1 162 1 127 1 72 1
97 0 5 77 1 331 1 3 1 171 1 131 1
98 0 5 22 1 244 1 37 1 273 1 296 1
99 0 5 268 1 151 1 261 1 310 1 197 1
100 0 5 189 1 131 1 316 1 327 1 224 1
101 0 5 112 1 289 1 71 1 157 1 60 1
102 0 5 121 1 254 1 174 1 194 1 263 1
103 0 5 56 1 88 1 331 1 123 1 131 1
104 0 5 123 1 15 1 225 1 109 1 185 1
105 0 5 50 1 146 1 62 1 28 1 282 1
106 0 5 52 1 256 1 157 1 203 1 209 1
107 0 5 53 1 176 1 122 1 175 1 54 1
108 0 5 134 1 308 1 118 1 138 1 288 1
109 0 5 314 1 185 1 232 1 262 1 15 1
110 0 5 280 1 36 1 240 1 19 1 325 1
111 0 5 162 1 72 1 322 1 284 1 292 1
112 0 5 101 1 202 1 178 1 150 1 206 1
113 0 5 264 1 306 1 373 1 372 1 371 1
114 0 5 231 1 13 1 75 1 32 1 303 1
115 0 5 333 1 27 1 41 1 242 1 155 1
116 0 5 45 1 31 1 217 1 191 1 38 1
117 0 5 169 1 171 1 335 1 11 1 3 1
118 0 5 138 1 108 1 329 1 292 1 29 1
119 0 5 244 1 296 1 270 1 140 1 332 1
120 0 5 228 1 259 1 209 1 106 1 52 1
121 0 5 323 1 102 1 254 1 9 1 174 1
122 0 5 176 1 190 1 107 1 53 1 137 1
123 0 5 104 1 225 1 265 1 15 1 103 1
124 0 5 199 1 277 1 212 1 4 1 67 1
125 0 5 131 1 255 1 88 1 3 1 224 1
126 0 5 160 1 23 1 130 1 25 1 249 1
127 0 5 251 1 257 1 319 1 75 1 96 1
128 0 5 91 1 198 1 44 1 133 1 286 1
129 0 5 219 1 272 1 14 1 93 1 60 1
130 0 5 203 1 82 1 245 1 25 1 126 1
131 0 5 316 1 100 1 77 1 6 1 97 1
132 0 5 235 1 322 1 172 1 162 1 319 1
133 0 5 254 1 291 1 194 1 286 1 128 1
134 0 5 108 1 308 1 288 1 237 1 249 1
135 0 5 311 1 253 1 145 1 89 1 154 1
136 0 5 247 1 272 1 129 1 14 1 60 1
137 0 5 190 1 319 1 122 1 53 1 107 1
138 0 5 118 1 29 1 172 1 329 1 108 1
139 0 5 64 1 7 1 178 1 76 1 193 1
140 0 5 332 1 119 1 296 1 163 1 33 1
141 0 5 211 1 221 1 182 1 287 1 266 1
142 0 5 293 1 334 1 307 1 51 1 263 1
143 0 5 115 1 68 1 155 1 20 1 6 1
144 0 5 21 1 284 1 256 1 96 1 72 1
145 0 5 183 1 135 1 253 1 311 1 89 1
146 0 5 62 1 168 1 105 1 148 1 161 1
147 0 5 325 1 281 1 81 1 110 1 166 1
148 0 5 168 1 161 1 236 1 105 1 49 1
149 0 5 83 1 280 1 79 1 188 1 5 1
150 0 5 76 1 278 1 112 1 259 1 64 1
151 0 5 99 1 261 1 85 1 310 1 197 1
152 0 5 274 1 215 1 294 1 50 1 87 1
153 0 5 218 1 50 1 28 1 210 1 87 1
154 0 5 253 1 156 1 89 1 135 1 311 1
155 0 5 242 1 6 1 115 1 333 1 316 1
156 0 5 175 1 154 1 80 1 253 1 89 1
157 0 5 71 1 101 1 106 1 82 1 112 1
158 0 5 318 1 219 1 14 1 129 1 327 1
159 0 5 90 1 40 1 261 1 246 1 250 1
160 0 5 126 1 23 1 237 1 130 1 82 1
161 0 5 148 1 236 1 85 1 168 1 49 1
162 0 5 111 1 257 1 72 1 251 1 322 1
163 0 5 320 1 270 1 140 1 295 1 173 1
164 0 5 239 1 179 1 204 1 215 1 299 1
165 0 5 110 1 325 1 304 1 63 1 14 1
166 0 5 70 1 41 1 242 1 81 1 20 1
167 0 5 11 1 177 1 95 1 18 1 57 1
168 0 5 148 1 146 1 161 1 236 1 105 1
169 0 5 117 1 335 1 11 1 171 1 177 1
170 0 5 229 1 303 1 234 1 228 1 233 1
171 0 5 238 1 3 1 117 1 211 1 264 1
172 0 5 29 1 330 1 132 1 138 1 322 1
173 0 5 295 1 66 1 196 1 317 1 320 1
174 0 5 323 1 51 1 102 1 212 1 9 1
175 0 5 80 1 53 1 156 1 253 1 107 1
176 0 5 54 1 122 1 107 1 235 1 53 1
177 0 5 11 1 167 1 331 1 18 1 57 1
178 0 5 139 1 112 1 93 1 202 1 150 1
179 0 5 299 1 220 1 164 1 204 1 239 1
180 0 5 87 1 274 1 294 1 210 1 153 1
181 0 5 59 1 30 1 312 1 16 1 70 1
182 0 5 22 1 243 1 221 1 141 1 43 1
183 0 5 328 1 145 1 330 1 54 1 253 1
184 0 5 306 1 287 1 211 1 141 1 238 1
185 0 5 109 1 84 1 232 1 15 1 208 1
186 0 5 302 1 82 1 160 1 60 1 23 1
187 0 5 248 1 196 1 234 1 317 1 55 1
188 0 5 58 1 279 1 192 1 83 1 149 1
189 0 5 327 1 100 1 200 1 224 1 73 1
190 0 5 137 1 122 1 235 1 176 1 319 1
191 0 5 86 1 216 1 299 1 258 1 220 1
192 0 5 288 1 188 1 308 1 279 1 250 1
193 0 5 26 1 76 1 230 1 34 1 283 1
194 0 5 8 1 102 1 254 1 133 1 263 1
195 0 5 275 1 233 1 283 1 201 1 278 1
196 0 5 66 1 187 1 173 1 317 1 226 1
197 0 5 310 1 49 1 28 1 151 1 40 1
198 0 5 128 1 12 1 44 1 269 1 91 1
199 0 5 124 1 67 1 212 1 9 1 84 1
200 0 5 224 1 189 1 327 1 227 1 100 1
201 0 5 234 1 233 1 229 1 94 1 283 1
202 0 5 112 1 206 1 178 1 101 1 2 1
203 0 5 130 1 245 1 256 1 52 1 106 1
204 0 5 220 1 276 1 164 1 179 1 215 1
205 0 5 321 1 299 1 291 1 59 1 239 1
206 0 5 2 1 202 1 112 1 259 1 150 1
207 0 5 336 1 291 1 286 1 133 1 312 1
208 0 5 15 1 326 1 109 1 232 1 185 1
209 0 5 32 1 256 1 228 1 120 1 259 1
210 0 5 180 1 294 1 59 1 153 1 87 1
211 0 5 287 1 141 1 238 1 243 1 171 1
212 0 5 277 1 51 1 124 1 4 1 174 1
213 0 5 237 1 23 1 302 1 160 1 92 1
214 0 5 226 1 317 1 33 1 55 1 94 1
215 0 5 276 1 152 1 164 1 294 1 239 1
216 0 5 86 1 45 1 191 1 220 1 217 1
217 0 5 47 1 307 1 116 1 45 1 38 1
218 0 5 271 1 5 1 153 1 42 1 83 1
219 0 5 129 1 73 1 93 1 227 1 158 1
220 0 5 204 1 179 1 86 1 216 1 191 1
221 0 5 266 1 141 1 243 1 182 1 43 1
222 0 5 298 1 283 1 94 1 74 1 34 1
223 0 5 300 1 185 1 95 1 297 1 18 1
224 0 5 200 1 65 1 100 1 252 1 189 1
225 0 5 15 1 57 1 123 1 104 1 331 1
226 0 5 55 1 317 1 214 1 35 1 33 1
227 0 5 290 1 73 1 219 1 200 1 158 1
228 0 5 120 1 209 1 32 1 259 1 170 1
229 0 5 170 1 234 1 233 1 201 1 228 1
230 0 5 283 1 34 1 193 1 26 1 48 1
231 0 5 13 1 114 1 75 1 256 1 209 1
232 0 5 262 1 185 1 109 1 84 1 67 1
233 0 5 201 1 229 1 275 1 278 1 170 1
234 0 5 201 1 229 1 187 1 170 1 35 1
235 0 5 132 1 322 1 54 1 319 1 176 1
236 0 5 85 1 161 1 49 1 148 1 310 1
237 0 5 213 1 160 1 92 1 134 1 23 1
238 0 5 171 1 287 1 211 1 306 1 264 1
239 0 5 164 1 294 1 215 1 179 1 152 1
240 0 5 110 1 36 1 302 1 79 1 147 1
241 0 5 10 1 92 1 288 1 19 1 302 1
242 0 5 155 1 6 1 115 1 166 1 91 1
243 0 5 182 1 221 1 211 1 266 1 141 1
244 0 5 119 1 98 1 37 1 296 1 267 1
245 0 5 25 1 203 1 256 1 130 1 21 1
246 0 5 90 1 159 1 83 1 188 1 28 1
247 0 5 136 1 272 1 60 1 186 1 289 1
248 0 5 187 1 35 1 234 1 94 1 55 1
249 0 5 23 1 72 1 111 1 292 1 134 1
250 0 5 329 1 279 1 159 1 192 1 108 1
251 0 5 127 1 257 1 162 1 96 1 319 1
252 0 5 285 1 65 1 313 1 301 1 266 1
253 0 5 154 1 135 1 175 1 145 1 89 1
254 0 5 102 1 133 1 194 1 121 1 51 1
255 0 5 68 1 125 1 143 1 88 1 316 1
256 0 5 209 1 52 1 245 1 13 1 203 1
257 0 5 251 1 127 1 162 1 319 1 72 1
258 0 5 39 1 299 1 263 1 191 1 8 1
259 0 5 120 1 2 1 228 1 209 1 150 1
260 0 5 301 1 17 1 285 1 313 1 37 1
261 0 5 40 1 151 1 311 1 89 1 159 1
262 0 5 232 1 78 1 314 1 84 1 109 1
263 0 5 334 1 258 1 102 1 39 1 194 1
264 0 5 113 1 171 1 306 1 238 1 337 1
265 0 5 91 1 9 1 314 1 123 1 78 1
266 0 5 221 1 24 1 301 1 43 1 285 1
267 0 5 48 1 37 1 26 1 244 1 332 1
268 0 5 99 1 89 1 151 1 261 1 85 1
269 0 5 12 1 198 1 27 1 41 1 115 1
270 0 5 163 1 296 1 119 1 140 1 332 1
271 0 5 5 1 218 1 42 1 83 1 149 1
272 0 5 136 1 14 1 129 1 247 1 60 1
273 0 5 37 1 24 1 98 1 43 1 301 1
274 0 5 152 1 294 1 180 1 87 1 50 1
275 0 5 195 1 233 1 278 1 201 1 283 1
276 0 5 204 1 215 1 282 1 152 1 62 1
277 0 5 4 1 212 1 124 1 174 1 9 1
278 0 5 233 1 150 1 275 1 2 1 76 1
279 0 5 58 1 288 1 188 1 192 1 250 1
280 0 5 79 1 110 1 149 1 36 1 19 1
281 0 5 46 1 147 1 42 1 325 1 309 1
282 0 5 62 1 105 1 276 1 50 1 215 1
283 0 5 230 1 222 1 74 1 94 1 298 1
284 0 5 144 1 96 1 72 1 21 1 162 1
285 0 5 252 1 313 1 301 1 266 1 260 1
286 0 5 44 1 312 1 133 1 207 1 336 1
287 0 5 211 1 184 1 238 1 141 1 243 1
288 0 5 192 1 279 1 58 1 241 1 92 1
289 0 5 101 1 60 1 71 1 112 1 157 1
290 0 5 227 1 73 1 202 1 178 1 69 1
291 0 5 207 1 336 1 133 1 258 1 8 1
292 0 5 322 1 111 1 138 1 118 1 172 1
293 0 5 142 1 51 1 334 1 307 1 102 1
294 0 5 274 1 180 1 152 1 210 1 239 1
295 0 5 320 1 173 1 317 1 163 1 214 1
296 0 5 270 1 43 1 119 1 244 1 140 1
297 0 5 300 1 18 1 95 1 167 1 57 1
298 0 5 222 1 94 1 74 1 283 1 305 1
299 0 5 179 1 258 1 191 1 205 1 220 1
300 0 5 297 1 223 1 335 1 167 1 18 1
301 0 5 24 1 266 1 260 1 285 1 273 1
302 0 5 19 1 186 1 240 1 92 1 110 1
303 0 5 32 1 170 1 114 1 228 1 209 1
304 0 5 318 1 147 1 81 1 165 1 143 1
305 0 5 74 1 332 1 33 1 48 1 140 1
306 0 5 184 1 238 1 113 1 264 1 287 1
307 0 5 217 1 47 1 51 1 142 1 4 1
308 0 5 108 1 134 1 192 1 288 1 92 1
309 0 5 61 1 42 1 46 1 325 1 5 1
310 0 5 49 1 197 1 85 1 151 1 236 1
311 0 5 135 1 89 1 145 1 261 1 253 1
312 0 5 286 1 336 1 44 1 181 1 30 1
313 0 5 285 1 252 1 301 1 324 1 266 1
314 0 5 78 1 109 1 262 1 232 1 265 1
315 0 5 56 1 331 1 77 1 88 1 177 1
316 0 5 131 1 6 1 20 1 100 1 155 1
317 0 5 226 1 214 1 295 1 173 1 320 1
318 0 5 158 1 219 1 14 1 304 1 129 1
319 0 5 137 1 127 1 257 1 235 1 132 1
320 0 5 163 1 295 1 317 1 173 1 140 1
321 0 5 205 1 299 1 239 1 258 1 291 1
322 0 5 132 1 162 1 235 1 111 1 172 1
323 0 5 121 1 174 1 9 1 254 1 102 1
324 0 5 313 1 260 1 3 1 227 1 65 1
325 0 5 61 1 46 1 147 1 281 1 309 1
326 0 5 208 1 225 1 57 1 185 1 95 1
327 0 5 189 1 73 1 200 1 100 1 224 1
328 0 5 183 1 330 1 54 1 145 1 172 1
329 0 5 250 1 138 1 118 1 261 1 159 1
330 0 5 328 1 29 1 183 1 172 1 145 1
331 0 5 77 1 97 1 57 1 225 1 177 1
332 0 5 140 1 305 1 119 1 33 1 74 1
333 0 5 115 1 68 1 255 1 6 1 155 1
334 0 5 263 1 38 1 142 1 293 1 258 1
335 0 5 169 1 300 1 223 1 117 1 11 1
336 0 5 207 1 291 1 312 1 286 1 133 1
337 0 5 359 1 358 1 375 1 374 1 373 1
338 0 5 359 1 358 1 375 1 374 1 373 1
339 0 5 359 1 358 1 375 1 374 1 373 1
340 0 5 359 1 358 1 375 1 374 1 373 1
341 0 5 359 1 358 1 375 1 374 1 373 1
342 0 5 359 1 358 1 375 1 374 1 373 1
343 0 5 359 1 358 1 375 1 374 1 373 1
344 0 5 359 1 358 1 375 1 374 1 373 1
345 0 5 359 1 358 1 375 1 374 1 373 1
346 0 5 359 1 358 1 375 1 374 1 373 1
347 0 5 359 1 358 1 375 1 374 1 373 1
348 0 5 359 1 358 1 375 1 374 1 373 1
349 0 5 359 1 358 1 375 1 374 1 373 1
350 0 5 359 1 358 1 375 1 374 1 373 1
351 0 5 359 1 358 1 375 1 374 1 373 1
352 0 5 359 1 358 1 375 1 374 1 373 1
353 0 5 359 1 358 1 375 1 374 1 373 1
354 0 5 359 1 358 1 375 1 374 1 373 1
355 0 5 359 1 358 1 375 1 374 1 373 1
356 0 5 359 1 358 1 375 1 374 1 373 1
357 0 5 359 1 358 1 375 1 374 1 373 1
358 0 5 359 1 358 1 375 1 374 1 373 1
359 0 5 359 1 358 1 375 1 374 1 373 1
360 0 5 359 1 358 1 375 1 374 1 373 1
361 0 5 359 1 358 1 375 1 374 1 373 1
362 0 5 359 1 358 1 375 1 374 1 373 1
363 0 5 359 1 358 1 375 1 374 1 373 1
364 0 5 359 1 358 1 375 1 374 1 373 1
365 0 5 359 1 358 1 375 1 374 1 373 1
366 0 5 359 1 358 1 375 1 374 1 373 1
367 0 5 359 1 358 1 375 1 374 1 373 1
368 0 5 359 1 358 1 375 1 374 1 373 1
369 0 5 359 1 358 1 375 1 374 1 373 1
370 0 5 359 1 358 1 375 1 374 1 373 1
371 0 5 359 1 358 1 375 1 374 1 373 1
372 0 5 359 1 358 1 375 1 374 1 373 1
373 0 5 359 1 358 1 375 1 374 1 373 1
374 0 5 359 1 358 1 375 1 374 1 373 1
375 0 5 359 1 358 1 375 1 374 1 373 1
376 0 5 359 1 358 1 375 1 374 1 373 1
377 0 5 359 1 358 1 375 1 374 1 373 1
378 0 5 359 1 358 1 375 1 374 1 373 1
379 0 5 359 1 358 1 375 1 374 1 373 1
380 0 5 359 1 358 1 375 1 374 1 373 1
381 0 5 359 1 358 1 375 1 374 1 373 1
382 0 5 359 1 358 1 375 1 374 1 373 1
383 0 5 359 1 358 1 375 1 374 1 373 1
384 0 5 359 1 358 1 375 1 374 1 373 1
385 0 5 359 1 358 1 375 1 374 1 373 1
386 0 5 359 1 358 1 375 1 374 1 373 1
387 0 5 359 1 358 1 375 1 374 1 373 1
388 0 5 359 1 358 1 375 1 374 1 373 1
389 0 5 359 1 358 1 375 1 374 1 373 1
390 0 5 359 1 358 1 375 1 374 1 373 1
391 0 5 359 1 358 1 375 1 374 1 373 1
392 0 5 359 1 358 1 375 1 374 1 373 1
393 0 5 359 1 358 1 375 1 374 1 373 1
394 0 5 359 1 358 1 375 1 374 1 373 1
395 0 5 359 1 358 1 375 1 374 1 373 1
396 0 5 359 1 358 1 375 1 374 1 373 1
397 0 5 359 1 358 1 375 1 374 1 373 1
398 0 5 359 1 358 1 375 1 374 1 373 1
399 0 5 359 1 358 1 375 1 374 1 373 1
400 0 5 359 1 358 1 375 1 374 1 373 1
401 0 5 359 1 358 1 375 1 374 1 373 1
402 0 5 359 1 358 1 375 1 374 1 373 1
403 0 5 359 1 358 1 375 1 374 1 373 1
404 0 5 359 1 358 1 375 1 374 1 373 1
405 0 5 359 1 358 1 375 1 374 1 373 1
406 0 5 359 1 358 1 375 1 374 1 373 1
407 0 5 359 1 358 1 375 1 374 1 373 1
408 0 5 359 1 358 1 375 1 374 1 373 1
409 0 5 359 1 358 1 375 1 374 1 373 1
410 0 5 359 1 358 1 375 1 374 1 373 1
411 0 5 359 1 358 1 375 1 374 1 373 1
412 0 5 359 1 358 1 375 1 374 1 373 1
413 0 5 359 1 358 1 375 1 374 1 373 1
414 0 5 359 1 358 1 375 1 374 1 373 1
415 0 5 359 1 358 1 375 1 374 1 373 1
416 0 5 359 1 358 1 375 1 374 1 373 1
417 0 5 359 1 358 1 375 1 374 1 373 1
418 0 5 359 1 358 1 375 1 374 1 373 1
419 0 5 359 1 358 1 375 1 374 1 373 1
-1
EOF
